(declare-fun e () String)
(declare-fun c () String)
(declare-fun g () String)
(declare-fun b () String)
(declare-fun d () String)
(declare-fun f () String)
(declare-fun a () String)
(declare-fun h () String)
(assert (= (str.++ d "fb" a) (str.++ d "f" c e g)))
(assert (= (str.++ "e" h c) (str.++ g b)))
(assert (= (str.++ e a "ce") (str.++ "bae" f b)))

(check-sat)
